objective value:                                  -14
t_x35                                               1 	(obj:0)
t_x38                                               1 	(obj:0)
t_x39                                               1 	(obj:0)
t_x43                                               1 	(obj:0)
t_x64                                               1 	(obj:0)
t_x65                                               1 	(obj:0)
t_x68                                               1 	(obj:0)
t_x77                                               1 	(obj:0)
t_x101                                              1 	(obj:0)
t_x103                                              1 	(obj:0)
t_x123                                              1 	(obj:0)
t_x125                                              1 	(obj:0)
t_x164                                              1 	(obj:0)
t_x165                                              1 	(obj:0)
t_x170                                              1 	(obj:0)
t_x187                                              1 	(obj:0)
t_x192                                              1 	(obj:0)
t_x195                                              1 	(obj:0)
t_x209                                              1 	(obj:0)
t_x280                                              1 	(obj:0)
t_x281                                              1 	(obj:0)
t_x282                                              1 	(obj:0)
t_x315                                              1 	(obj:0)
t_x316                                              1 	(obj:0)
t_x317                                              1 	(obj:0)
t_x320                                              1 	(obj:0)
t_x343                                              1 	(obj:0)
t_x344                                              1 	(obj:0)
t_x345                                              1 	(obj:0)
t_x402                                              1 	(obj:0)
t_x403                                              1 	(obj:0)
t_x404                                              1 	(obj:0)
t_x421                                              1 	(obj:0)
t_x462                                              1 	(obj:0)
t_x467                                              1 	(obj:0)
t_x492                                              1 	(obj:0)
t_x513                                              1 	(obj:0)
t_x521                                              1 	(obj:0)
t_x527                                              1 	(obj:0)
t_x552                                              1 	(obj:0)
t_x580                                              1 	(obj:0)
t_x584                                              1 	(obj:0)
t_x619                                              1 	(obj:0)
t_x642                                              1 	(obj:0)
t_x666                                              1 	(obj:0)
t_x674                                              1 	(obj:0)
t_x719                                              1 	(obj:0)
t_x720                                              1 	(obj:0)
t_x1                                               14 	(obj:-1)
